c --- [ banner ] -------------------------------------------------------------
c 
c CaDiCaL SAT Solver
c Copyright (c) 2016-2023 A. Biere, M. Fleury, N. Froleyks, K. Fazekas, F. Pollitt
c 
c Version 1.9.5
c g++ (Ubuntu 11.4.0-1ubuntu1~22.04) 11.4.0 -Wall -Wextra -O3 -DNDEBUG -static
c Thu Mar 7 06:16:21 CET 2024 Linux pc101447 6.5.0-17-generic x86_64
c 
c --- [ limit ] --------------------------------------------------------------
c 
c setting time limit to 3600 seconds real time (due to '-t 3600')
c 
c --- [ parsing input ] ------------------------------------------------------
c 
c reading DIMACS file from '/home/oliveras/SAT-comp-2023//53799aafcd0c684a2adc79400bd35f82-satcoin-genesis-UNSAT-5920.cnf'
c opening file to read '/home/oliveras/SAT-comp-2023//53799aafcd0c684a2adc79400bd35f82-satcoin-genesis-UNSAT-5920.cnf'
c found 'p cnf 141429 646176' header
c parsed 646176 clauses in 0.38 seconds process time
c 
c --- [ options ] ------------------------------------------------------------
c 
c   --seed=1                       (different from default '0')
c 
c --- [ solving ] ------------------------------------------------------------
c 
c time measured in process time since initialization
c 
c  seconds  reductions  redundant  irredundant
c         MB    restarts       trail       variables
c          level   conflicts       glue          remaining
c 
c *  0.38 88  0 0   0    0    0  0% 0 646015 124570 88%
c {  0.47 101  0 0   0    0    0  0% 0 646015 124570 88%
c i  0.47 101  1 0   0    1    0  1% 0 646015 124567 88%
c -  0.63 103 15997 1   2  300  264 18% 3 643756 124567 88%
c }  0.71 103 4692 1 196 1000  915  7% 8 643756 124567 88%
c [  0.71 103  0 1 196 1000  915  0% 0 643756 124567 88%
c O  0.79 105 216 1 196 1003  917 46% 13 643756 124567 88%
c - 12.52 143 11 2 196 1386  996 60% 9 643756 124567 88%
c ] 31.78 136 250 2 197 3001 2421 32% 84 643756 124567 88%
c { 31.78 136 4692 2 197 3001 2421  8% 8 643756 124567 88%
c F 31.78 136 4677 2 198 3004 2423  8% 8 643756 124567 88%
c - 31.89 142 4634 3 201 3013 2169  8% 8 643756 124567 88%
c s 49.73 160 1793 3 643 4750 3831 32% 145 643492 124567 88%
c v 50.73 160 1793 3 643 4750 3831 32% 145 639130 124566 88%
c w 50.91 160 1793 3 643 4750 3831 32% 145 639130 124566 88%
c t 50.93 160 1793 3 643 4750 3830 32% 145 639123 124508 88%
c e 51.85 162 1793 3 643 4750 1302 32% 145 550677 82207 58%
c s 51.95 166 1793 3 643 4750 1301 32% 145 550664 82207 58%
c e 52.09 166 1793 3 643 4750 1300 32% 145 550657 82198 58%
c d 54.11 166 1659 3 695 5002 1517 31% 149 550653 82197 58%
c 
c  seconds     reductions   redundant    irredundant
c          MB      restarts        trail         variables
c            level    conflicts         glue          remaining
c 
c 3 54.41 168 1659 3 695 5002 15114 31% 149 550653 82197 58%
c 3 54.47 168 1659 3 695 5002 20479 31% 149 550653 82197 58%
c d 54.64 168 1659 3 695 5002 20446 31% 149 550653 82193 58%
c 2 54.70 168 1659 3 695 5002 20446 31% 149 550653 82191 58%
c p 54.80 168 1659 3 695 5002 24255 31% 149 550653 82172 58%
c - 56.76 150 1576 4 743 5184 4507 31% 155 550326 82172 58%
c # 64.10 150 1297 4 948 6006 4652 32% 177 550326 82172 58%
c } 72.80 173 1082 4 1185 7002 5167 52% 190 550326 82172 58%
c [ 72.80 173 250 4 1185 7002 5167 48% 84 550326 82172 58%
c - 73.33 173 258 5 1186 7795 5056 29% 78 550326 82172 58%
c I 81.15 173 262 5 1187 10007 7118 24% 99 550326 82172 58%
c - 87.75 174 260 6 1188 10929 6818 26% 114 550326 82172 58%
c - 119.63 201 257 7 1190 14584 7162 33% 156 550326 82172 58%
c ] 123.42 201 257 7 1190 15002 7467 34% 159 550326 82172 58%
c { 123.42 201 1082 7 1190 15002 7467 52% 190 550326 82172 58%
c d 123.48 201 1082 7 1191 15002 7467 52% 190 550250 82147 58%
c 3 123.56 201 1082 7 1191 15002 18353 52% 190 550250 82147 58%
c 2 123.72 201 1082 7 1191 15002 22842 52% 190 550242 82146 58%
c p 123.74 201 1082 7 1191 15002 26377 52% 190 550242 82146 58%
c B 123.79 201 1081 7 1192 15008 26383 52% 190 550242 82146 58%
c 
c  seconds     reductions     redundant    irredundant
c           MB     restarts          trail         variables
c             level     conflicts         glue          remaining
c 
c s 130.12 201 974 7 1361 15726 26082 52% 196 550133 82146 58%
c v 131.03 201 974 7 1361 15726 26082 52% 196 546369 82146 58%
c w 131.19 201 974 7 1361 15726 26047 52% 196 546369 82146 58%
c t 131.21 201 974 7 1361 15726 26046 52% 196 546364 82146 58%
c e 131.37 201 974 7 1361 15726 25986 52% 196 546329 82113 58%
c s 131.38 201 974 7 1361 15726 25982 52% 196 546323 82113 58%
c e 131.47 201 974 7 1361 15726 25973 52% 196 546311 82110 58%
c - 158.48 226 716 8 2120 18762 10096 52% 212 546311 82110 58%
c W 179.66 226 618 8 2594 21009 12029 52% 218 546311 82110 58%
c - 201.35 226 548 9 2594 23454 10626 52% 222 546311 82110 58%
c F 241.62 226 469 9 2594 28011 14502 52% 227 546311 82110 58%
c - 247.44 226 460 10 2594 28666 11156 52% 226 546311 82110 58%
c 3 259.26 226 443 10 2594 30003 16425 52% 225 546307 82110 58%
c 2 259.40 226 443 10 2594 30003 21855 52% 225 546305 82109 58%
c p 259.43 226 443 10 2594 30003 25379 52% 225 546305 82108 58%
c } 268.12 226 434 10 2704 31002 26254 52% 226 546305 82108 58%
c [ 268.12 226 257 10 2704 31002 26254 34% 159 546305 82108 58%
c s 276.10 226 257 10 2704 32131 26887 34% 163 546302 82108 58%
c v 276.95 226 257 10 2704 32131 26887 34% 163 546254 82108 58%
c w 277.28 226 257 10 2704 32131 26879 34% 163 546254 82108 58%
c 
c  seconds     reductions      redundant    irredundant
c           MB      restarts          trail         variables
c             level      conflicts         glue          remaining
c 
c t 277.30 226 257 10 2704 32131 26879 34% 163 546252 82108 58%
c e 277.40 226 257 10 2704 32131 26878 34% 163 546239 82104 58%
c s 277.41 226 257 10 2704 32131 26877 34% 163 546237 82104 58%
c - 299.34 226 256 11 2705 34400 10727 37% 175 546237 82104 58%
c B 315.08 226 255 11 2707 36012 11313 38% 181 546237 82104 58%
c - 359.98 226 253 12 2710 40654 9528 40% 193 546237 82104 58%
c W 392.01 226 252 12 2711 45014 11674 39% 192 546237 82104 58%
c - 411.13 226 252 13 2712 47430 10684 39% 194 546237 82104 58%
c 3 432.10 226 252 13 2712 50005 16492 39% 196 546237 82104 58%
c 3 432.12 226 252 13 2712 50005 21651 39% 196 546237 82104 58%
c d 432.23 226 252 13 2712 50005 21626 39% 196 546237 82101 58%
c p 432.30 226 252 13 2712 50005 25119 39% 196 546237 82101 58%
c s 467.42 226 251 13 2713 54005 27371 40% 200 546224 82101 58%
c w 468.46 226 251 13 2713 54005 27371 40% 200 546224 82101 58%
c s 468.59 226 251 13 2713 54005 27339 40% 200 546224 82101 58%
c - 475.06 226 251 14 2713 54729 12387 40% 200 546224 82101 58%
c O 478.24 226 252 14 2713 55015 12590 40% 201 546224 82101 58%
c - 522.79 228 255 15 2719 62548 13649 38% 193 546224 82101 58%
c ] 525.46 228 255 15 2719 63002 13927 38% 193 546224 82101 58%
c { 525.46 228 434 15 2719 63002 13927 52% 226 546224 82101 58%
c 
c  seconds     reductions      redundant    irredundant
c           MB      restarts          trail         variables
c             level      conflicts         glue          remaining
c 
c B 533.21 228 410 15 2723 66017 16489 47% 212 546224 82101 58%
c - 541.38 228 398 16 2723 70889 15266 40% 194 546224 82101 58%
c 3 554.23 228 383 16 2726 75005 22983 37% 184 546224 82101 58%
c p 554.40 228 383 16 2726 75005 31356 37% 184 546224 82101 58%
c W 566.42 228 369 16 2726 78019 34295 36% 176 546224 82101 58%
c - 566.76 228 375 17 2727 79749 17396 34% 169 546224 82101 58%
c - 567.82 228 366 18 2731 89131 16772 26% 145 546224 82101 58%
c # 568.03 228 361 18 2731 91021 18597 25% 141 546224 82101 58%
c - 569.69 228 346 19 2731 99035 18313 21% 121 546224 82101 58%
c 3 571.16 228 336 19 2731 105005 27701 19% 111 546224 82101 58%
c p 571.33 228 336 19 2731 105005 35987 19% 111 546224 82101 58%
c B 571.40 228 336 19 2731 105023 36005 19% 111 546224 82101 58%
c - 597.22 185 333 20 2731 109459 20739 21% 109 546224 82101 58%
c W 659.80 185 326 20 2731 120024 31023 25% 105 546224 82101 58%
c - 659.99 193 327 21 2734 120405 20440 25% 104 546224 82101 58%
c } 666.14 193 326 21 2763 127003 26713 23% 99 546224 82101 58%
c [ 666.14 193 255 21 2763 127003 26713 38% 193 546224 82101 58%
c - 674.14 182 261 22 2765 131872 21180 34% 176 546224 82101 58%
c B 689.26 182 264 22 2768 136025 25226 33% 172 546224 82101 58%
c 3 700.07 182 269 22 2770 140007 32576 31% 168 546224 82101 58%
c 
c  seconds     reductions       redundant    irredundant
c           MB      restarts           trail         variables
c             level      conflicts          glue          remaining
c 
c p 700.24 182 269 22 2770 140007 40695 31% 168 546224 82101 58%
c - 705.95 188 271 23 2771 143860 23366 29% 161 546224 82101 58%
c W 760.35 188 278 23 2772 153027 32317 29% 156 546224 82101 58%
c - 767.31 196 279 24 2772 156371 24843 28% 153 546224 82101 58%
c - 779.38 183 279 25 2774 169402 27042 23% 142 546224 82101 58%
c I 785.17 183 280 25 2775 171028 28628 23% 141 546224 82101 58%
c 3 819.04 183 281 25 2779 180007 40749 23% 136 546224 82101 58%
c p 819.22 183 281 25 2779 180007 48677 23% 136 546224 82101 58%
c - 827.28 193 281 26 2782 182955 28403 22% 135 546224 82101 58%
c B 853.35 193 283 26 2786 190031 35261 22% 132 546224 82101 58%
c - 876.62 193 287 27 2787 197027 30445 22% 131 546224 82101 58%
c s 876.70 193 287 27 2787 197027 30310 22% 131 546224 82101 58%
c v 877.53 193 287 27 2787 197027 30310 22% 131 546222 82101 58%
c w 878.06 193 287 27 2787 197027 30307 22% 131 546222 82101 58%
c t 878.07 193 287 27 2787 197027 30304 22% 131 546222 82101 58%
c s 878.21 193 287 27 2787 197027 30257 22% 131 546222 82101 58%
c ^ 878.26 193 287 27 2787 197027 30257 22% 131 546222 82101 58%
c W 940.12 193 292 27 2794 210032 42778 22% 132 546222 82101 58%
c - 941.32 194 294 28 2794 211621 32124 22% 131 546222 82101 58%
c 3 982.16 194 299 28 2801 225009 48387 21% 127 546222 82101 58%
c 
c  seconds     reductions       redundant    irredundant
c           MB      restarts           trail         variables
c             level      conflicts          glue          remaining
c 
c p 982.34 194 299 28 2801 225009 56153 21% 127 546222 82101 58%
c - 988.45 190 298 29 2802 226736 33823 21% 126 546222 82101 58%
c s 1004.02 190 297 29 2802 229837 36786 21% 126 546222 82101 58%
c w 1005.23 190 297 29 2802 229837 36786 21% 126 546222 82101 58%
c t 1005.24 190 297 29 2802 229837 36785 21% 126 546222 82101 58%
c e 1005.85 190 297 29 2802 229837 26948 21% 126 547368 80929 57%
c s 1005.89 190 297 29 2802 229837 26893 21% 126 547073 80929 57%
c e 1006.07 180 297 29 2802 229837 26382 21% 126 547366 80601 57%
c O 1011.30 180 297 29 2802 231033 27538 21% 126 547366 80601 57%
c - 1063.66 219 294 30 2803 242373 30794 22% 118 547366 80601 57%
c B 1122.76 220 292 30 2804 253035 41196 23% 113 547366 80601 57%
c ] 1134.01 220 292 30 2804 255003 43091 23% 113 547366 80601 57%
c { 1134.01 220 326 30 2804 255003 43091 23% 99 547366 80601 57%
c - 1150.39 229 322 31 2812 258538 34803 23% 98 547366 80601 57%
c s 1210.56 229 308 31 2812 268529 44627 26% 97 547366 80601 57%
c v 1211.40 229 308 31 2812 268529 44627 26% 97 547363 80601 57%
c w 1211.80 229 308 31 2812 268529 44626 26% 97 547363 80601 57%
c s 1211.95 229 308 31 2812 268529 44582 26% 97 547363 80601 57%
c ^ 1212.01 229 308 31 2812 268529 44582 26% 97 547363 80601 57%
c 3 1223.64 229 305 31 2825 275009 54923 25% 93 547363 80601 57%
c 
c   seconds     reductions       redundant   irredundant
c            MB      restarts           trail        variables
c              level      conflicts         glue          remaining
c 
c p 1223.80 229 305 31 2825 275009 61403 25% 93 547363 80601 57%
c - 1224.01 227 305 32 2829 275225 36512 25% 93 547363 80601 57%
c F 1224.10 227 307 32 2829 276036 37282 25% 92 547363 80601 57%
c - 1304.40 230 293 33 2829 292433 37468 27% 87 547363 80601 57%
c B 1351.10 230 288 33 2829 300037 44964 29% 85 547363 80601 57%
c - 1355.45 223 290 34 2835 310166 39148 26% 80 547363 80601 57%
c s 1362.75 223 289 34 2835 312749 41615 26% 79 547363 80601 57%
c w 1363.92 223 289 34 2835 312749 41609 26% 79 547363 80601 57%
c e 1364.52 223 289 34 2835 312749 37747 26% 79 547489 80517 57%
c s 1364.54 223 289 34 2835 312749 37724 26% 79 547314 80517 57%
c W 1368.48 223 287 34 2858 325038 49604 23% 72 547314 80517 57%
c - 1374.01 213 286 35 2858 328418 39400 22% 71 547314 80517 57%
c 3 1377.27 213 286 35 2858 330009 44235 22% 70 547314 80517 57%
c 3 1377.29 213 286 35 2858 330009 48118 22% 70 547314 80517 57%
c p 1377.42 213 286 35 2858 330009 50508 22% 70 547314 80517 57%
c - 1381.54 183 288 36 2916 347191 42493 19% 65 547314 80517 57%
c # 1381.88 183 286 36 2918 351040 46213 18% 64 547314 80517 57%
c - 1409.42 220 286 37 3012 366489 44439 17% 60 547314 80517 57%
c B 1415.60 220 284 37 3260 378041 55529 16% 58 547314 80517 57%
c - 1418.98 184 283 38 3389 386305 47419 15% 57 547314 80517 57%
c 
c   seconds     reductions       redundant   irredundant
c            MB      restarts           trail        variables
c              level      conflicts         glue          remaining
c 
c 3 1419.62 184 283 38 3403 390010 54275 15% 56 547314 80517 57%
c 3 1419.64 184 283 38 3403 390010 58070 15% 56 547314 80517 57%
c p 1419.78 184 283 38 3403 390010 60379 15% 56 547314 80517 57%
c W 1426.84 184 279 38 3573 406042 75824 13% 53 547314 80517 57%
c - 1427.19 214 279 39 3586 406643 50735 13% 53 547314 80517 57%
c - 1439.25 214 277 40 4213 427503 53605 11% 51 547314 80517 57%
c F 1442.19 214 281 40 4327 435043 60810 11% 50 547314 80517 57%
c - 1451.49 246 287 41 4589 448883 56131 11% 48 547314 80517 57%
c 3 1453.80 246 287 41 4699 455010 65218 10% 48 547314 80517 57%
c 3 1453.82 246 287 41 4699 455010 68778 10% 48 547314 80517 57%
c p 1453.97 246 287 41 4699 455010 71028 10% 48 547314 80517 57%
c B 1459.10 246 285 41 5003 465045 80625 10% 47 547314 80517 57%
c - 1462.56 215 283 42 5140 470785 59592  9% 46 547314 80517 57%
c - 1485.09 248 281 43 6392 493208 63829  9% 46 547314 80517 57%
c W 1488.32 248 280 43 6548 496047 66534  9% 46 547314 80517 57%
c } 1500.48 248 275 43 7167 511003 80894  9% 45 547314 80517 57%
c [ 1500.48 248 292 43 7167 511003 80894 23% 113 547314 80517 57%
c - 1525.78 215 291 44 7167 516153 69737 24% 113 547314 80517 57%
c 3 1581.27 215 287 44 7167 525010 81563 25% 117 547314 80517 57%
c 3 1581.29 215 287 44 7167 525010 85036 25% 117 547314 80517 57%
c 
c   seconds     reductions       redundant    irredundant
c            MB      restarts           trail         variables
c              level      conflicts          glue          remaining
c 
c p 1581.44 215 287 44 7167 525010 87233 25% 117 547314 80517 57%
c W 1583.06 215 294 44 7167 528050 90165 24% 115 547314 80517 57%
c - 1652.27 281 292 45 7167 539620 73145 25% 115 547314 80517 57%
c I 1677.59 281 290 45 7181 561053 93941 21% 110 547314 80517 57%
c - 1689.81 215 290 46 7181 563607 75176 21% 110 547314 80517 57%
c s 1689.93 215 290 46 7181 563607 74963 21% 110 547281 80517 57%
c v 1690.78 215 290 46 7181 563607 74963 21% 110 547167 80517 57%
c w 1691.48 215 290 46 7181 563607 74941 21% 110 547167 80517 57%
c t 1691.49 215 290 46 7181 563607 74936 21% 110 547167 80517 57%
c s 1691.68 215 290 46 7181 563607 74834 21% 110 547165 80517 57%
c - 1795.65 279 293 47 7192 588116 75811 21% 112 547165 80517 57%
c B 1837.14 279 294 47 7196 595054 82631 22% 116 547165 80517 57%
c 3 1847.28 279 294 47 7197 600010 90412 22% 115 547165 80517 57%
c 3 1847.30 279 294 47 7197 600010 93851 22% 115 547165 80517 57%
c p 1847.45 279 294 47 7197 600010 96126 22% 115 547165 80517 57%
c - 1881.25 215 294 48 7198 613146 78472 21% 113 547165 80517 57%
c W 1966.67 215 291 48 7204 630055 94988 22% 113 547165 80517 57%
c - 2009.02 283 291 49 7208 638696 80992 22% 115 547165 80517 57%
c - 2092.63 215 291 50 7220 664768 83128 21% 111 547165 80517 57%
c O 2098.28 215 291 50 7220 666056 84376 21% 111 547165 80517 57%
c 
c   seconds     reductions       redundant     irredundant
c            MB      restarts            trail         variables
c              level      conflicts           glue          remaining
c 
c 3 2149.19 215 291 50 7227 680010 100763 21% 111 547165 80517 57%
c 3 2149.21 215 291 50 7227 680010 103867 21% 111 547165 80517 57%
c p 2149.37 215 291 50 7227 680010 106082 21% 111 547165 80517 57%
c - 2214.01 283 290 51 7229 691361 85092 22% 113 547165 80517 57%
c B 2292.03 283 287 51 7229 703059 96619 23% 116 547165 80517 57%
c - 2385.87 298 285 52 7230 718475 88005 24% 116 547165 80517 57%
c W 2513.67 298 283 52 7231 741061 110113 25% 116 547165 80517 57%
c - 2543.25 295 282 53 7231 746111 89796 25% 115 547165 80517 57%
c 3 2667.39 295 278 53 7231 765011 110950 27% 109 547165 80517 57%
c 3 2667.41 295 278 53 7231 765011 113854 27% 109 547165 80517 57%
c p 2667.57 295 278 53 7231 765011 116090 27% 109 547165 80517 57%
c - 2669.02 286 279 54 7231 774268 90881 25% 108 547165 80517 57%
c I 2669.83 286 279 54 7231 780063 96567 24% 107 547165 80517 57%
c - 2816.64 295 273 55 7231 802948 91977 26% 106 547165 80517 57%
c B 2886.18 295 275 55 7241 820065 108646 25% 104 547165 80517 57%
c - 2943.75 287 276 56 7246 832148 94550 25% 106 547165 80517 57%
c 3 3059.23 287 279 56 7256 855012 119312 25% 112 547165 80517 57%
c 3 3059.24 287 279 56 7256 855012 122115 25% 112 547165 80517 57%
c p 3059.41 287 279 56 7256 855012 124394 25% 112 547165 80517 57%
c W 3091.21 287 281 56 7260 861066 130267 25% 115 547165 80517 57%
c 
c   seconds     reductions       redundant    irredundant
c            MB      restarts           trail         variables
c              level      conflicts          glue          remaining
c 
c - 3091.44 291 281 57 7260 861875 97786 24% 115 547165 80517 57%
c s 3091.60 291 281 57 7260 861875 97585 24% 115 547165 80517 57%
c v 3092.49 291 281 57 7260 861875 97585 24% 115 547165 80517 57%
c w 3093.32 291 281 57 7260 861875 97574 24% 115 547165 80517 57%
c t 3093.34 291 281 57 7260 861875 97571 24% 115 547165 80517 57%
c s 3093.56 291 281 57 7260 861875 97495 24% 115 547165 80517 57%
c ^ 3093.62 291 281 57 7260 861875 97495 24% 115 547165 80517 57%
c - 3260.07 301 289 58 7265 892118 99296 25% 127 547165 80517 57%
c O 3292.03 301 290 58 7272 903067 109939 24% 125 547165 80517 57%
c s 3364.26 301 287 58 7279 922699 129061 23% 123 547165 80517 57%
c w 3365.93 301 287 58 7279 922699 129058 23% 123 547165 80517 57%
c e 3366.70 301 287 58 7279 922699 53853 23% 123 571791 74210 52%
c s 3366.85 301 287 58 7279 922699 53727 23% 123 571123 74210 52%
c e 3367.07 215 287 58 7279 922699 53244 23% 123 571242 74170 52%
c - 3367.28 215 288 59 7279 922884 47169 23% 123 571242 74170 52%
c B 3434.95 215 289 59 7291 946068 69587 21% 122 571242 74170 52%
c 3 3456.89 215 289 59 7292 950013 74329 21% 122 571242 74170 52%
c 3 3456.90 215 289 59 7292 950013 74601 21% 122 571242 74170 52%
c 2 3457.03 215 289 59 7292 950013 74578 21% 122 571242 74170 52%
c p 3457.06 215 289 59 7292 950013 75890 21% 122 571242 74170 52%
c 
c   seconds     reductions       redundant    irredundant
c            MB      restarts           trail         variables
c              level      conflicts          glue          remaining
c 
c - 3482.45 280 289 60 7292 954506 71121 22% 123 571242 74170 52%
c - 3537.58 215 280 61 7294 986655 80119 18% 114 571242 74170 52%
c W 3544.90 215 279 61 7294 990070 83452 18% 114 571242 74170 52%
c s 3563.95 215 279 61 7294 993384 86486 18% 114 570908 74170 52%
c v 3564.96 215 279 61 7294 993384 86486 18% 114 570794 74170 52%
c w 3565.58 215 279 61 7294 993384 86477 18% 114 570794 74170 52%
c e 3565.72 215 279 61 7294 993384 81271 18% 114 570822 74163 52%
c s 3565.86 215 279 61 7294 993384 81202 18% 114 570806 74163 52%
c 
c caught signal 2 (SIGINT)
c 
c --- [ result ] -------------------------------------------------------------
c 
c UNKNOWN
c 
c --- [ run-time profiling ] -------------------------------------------------
c 
c process time taken by individual solving procedures
c (percentage relative to process time for solving)
c 
c      3570.77   99.21% search
c      2877.49   79.95% stable
c       675.29   18.76% unstable
c        28.44    0.79% simplify
c        17.90    0.50% walk
c        15.33    0.43% vivify
c         4.75    0.13% elim
c         2.39    0.07% ternary
c         1.85    0.05% subsume
c         0.63    0.02% probe
c         0.38    0.01% parse
c         0.09    0.00% lucky
c   =================================
c      3599.20   99.99% solve
c 
c last line shows process time for solving
c (percentage relative to total process time)
c 
c --- [ statistics ] ---------------------------------------------------------
c 
c chronological:            149427        14.94 %  of conflicts
c conflicts:               1000346       277.94    per second
c decisions:               2333776       648.41    per second
c eliminated:                50202        35.50 %  of all variables
c fixed:                      1283         0.91 %  of all variables
c learned:                  984064        98.37 %  per conflict
c learned_lits:          508705114       100.00 %  learned literals
c minimized:                     0         0.00 %  learned literals
c shrunken:               32426006         6.37 %  learned literals
c minishrunken:          154402870        30.35 %  learned literals
c otfs:                       2850         0.28 %  of conflict
c propagations:        12797573336         3.56 M  per second
c reduced:                  770790        77.05 %  per conflict
c rephased:                     44     22735.14    interval
c restarts:                   7294       137.15    interval
c stabilizing:                   5        65.91 %  of conflicts
c substituted:                  34         0.02 %  of all variables
c subsumed:                  57757         2.58 %  of all clauses
c strengthened:              46998         2.10 %  of all clauses
c ternary:                  153366         0.98 %  of resolved
c trail reuses:                  0         0.00 %  of incremental calls
c vivified:                  26489         1.19 %  of all clauses
c walked:                       14     71453.29    interval
c weakened:                 224554         2.89    average size
c 
c seconds are measured in process time for solving
c 
c --- [ resources ] ----------------------------------------------------------
c 
c total process time since initialization:      3599.58    seconds
c total real time since initialization:         3599.99    seconds
c maximum resident set size of process:          377.95    MB
c 
c raising signal 2 (SIGINT)
